
        $ From http://www.csplib.org/Problems/prob009/data/helmut.pdf
        $ Problem number 204
        $ Sequence length : 25
        language ESSENCE' 1.0
        letting sizemaster be 643
        letting sizes be sequence(2,9,21,29,38,40,41,42,58,62,67,76,82,83,85,96,104,166,172,186,192,201,207,250,270)
        